7	2	3	7	0	0	0	0	0	0	0	0	0	0	0	0	0	0	0	3	0
7	2	3	8	0	0	0	0	0	0	0	0	0	0	0	0	0	0	0	3	0
7	2	3	9	0	0	0	0	0	0	0	0	0	0	0	0	0	0	0	3	0
7	2	3	10	0	0	0	0	0	0	0	0	0	0	0	0	0	0	0	3	0
7	2	3	11	0	0	0	0	0	0	0	0	0	0	0	0	0	0	0	3	0
7	2	3	12	0	0	0	0	0	0	0	0	0	0	0	0	0	0	0	3	0
7	2	3	13	0	0	0	0	0	0	0	0	0	0	0	0	0	0	0	3	0
7	2	3	14	0	0	0	0	0	0	0	0	0	0	0	0	0	0	0	3	0
7	3	3	8	0	0	0	0	0	0	0	0	0	0	0	0	0	0	0	3	0
7	3	3	9	0	0	0	0	0	0	0	0	0	0	0	0	0	0	0	3	0
7	3	3	10	0	0	0	0	0	0	0	0	0	0	0	0	0	0	0	3	0
7	3	3	11	0	0	0	0	0	0	0	0	0	0	0	0	0	0	0	3	0
7	3	3	12	0	0	0	0	0	0	0	0	0	0	0	0	0	0	0	3	0
7	3	3	13	0	0	0	0	0	0	0	0	0	0	0	0	0	0	0	3	0
7	3	3	14	0	0	0	0	0	0	0	0	0	0	0	0	0	0	0	3	0
7	3	3	15	0	0	0	0	0	0	0	0	0	0	0	0	0	0	0	3	0
7	4	3	9	0	0	0	0	0	0	0	0	0	0	0	0	0	0	0	3	0
7	4	3	10	0	0	0	0	0	0	0	0	0	0	0	0	0	0	0	3	0
7	4	3	11	0	0	0	0	0	0	0	0	0	0	0	0	0	0	0	3	0
7	4	3	12	0	0	0	0	0	0	0	0	0	0	0	0	0	0	0	3	0
7	4	3	13	0	0	0	0	0	0	0	0	0	0	0	0	0	0	0	3	0
7	4	3	14	0	0	0	0	0	0	0	0	0	0	0	0	0	0	0	3	0
7	4	3	15	0	0	0	0	0	0	0	0	0	0	0	0	0	0	0	3	0
7	4	3	16	0	0	0	0	0	0	0	0	0	0	0	0	0	0	0	3	0
7	5	3	10	0	0	0	0	0	0	0	0	0	0	0	0	0	0	0	3	0
7	5	3	11	0	0	0	0	0	0	0	0	0	0	0	0	0	0	0	3	0
7	5	3	12	0	0	0	0	0	0	0	0	0	0	0	0	0	0	0	3	0
7	5	3	13	0	0	0	0	0	0	0	0	0	0	0	0	0	0	0	3	0
7	5	3	14	0	0	0	0	0	0	0	0	0	0	0	0	0	0	0	3	0
7	5	3	15	0	0	0	0	0	0	0	0	0	0	0	0	0	0	0	3	0
7	5	3	16	0	0	0	0	0	0	0	0	0	0	0	0	0	0	0	3	0
7	5	3	17	0	0	0	0	0	0	0	0	0	0	0	0	0	0	0	3	0
7	6	3	11	0	0	0	0	0	0	0	0	0	0	0	0	0	0	0	3	0
7	6	3	12	0	0	0	0	0	0	0	0	0	0	0	0	0	0	0	3	0
7	6	3	13	0	0	0	0	0	0	0	0	0	0	0	0	0	0	0	3	0
7	6	3	14	0	0	0	0	0	0	0	0	0	0	0	0	0	0	0	3	0
7	6	3	15	0	0	0	0	0	0	0	0	0	0	0	0	0	0	0	3	0
7	6	3	16	0	0	0	0	0	0	0	0	0	0	0	0	0	0	0	3	0
7	6	3	17	0	0	0	0	0	0	0	0	0	0	0	0	0	0	0	3	0
7	6	3	18	0	0	0	0	0	0	0	0	0	0	0	0	0	0	0	3	0
7	7	3	12	0	0	0	0	0	0	0	0	0	0	0	0	0	0	0	3	0
7	7	3	13	0	0	0	0	0	0	0	0	0	0	0	0	0	0	0	3	0
7	7	3	14	0	0	0	0	0	0	0	0	0	0	0	0	0	0	0	3	0
7	7	3	15	0	0	0	0	0	0	0	0	0	0	0	0	0	0	0	3	0
7	7	3	16	0	0	0	0	0	0	0	0	0	0	0	0	0	0	0	3	0
7	7	3	17	0	0	0	0	0	0	0	0	0	0	0	0	0	0	0	3	0
7	7	3	18	0	0	0	0	0	0	0	0	0	0	0	0	0	0	0	3	0
7	7	3	19	0	0	0	0	0	0	0	0	0	0	0	0	0	0	0	3	0
7	8	3	13	0	0	0	0	0	0	0	0	0	0	0	0	0	0	0	3	0
7	8	3	14	0	0	0	0	0	0	0	0	0	0	0	0	0	0	0	3	0
7	8	3	15	0	0	0	0	0	0	0	0	0	0	0	0	0	0	0	3	0
7	8	3	16	0	0	0	0	0	0	0	0	0	0	0	0	0	0	0	3	0
7	8	3	17	0	0	0	0	0	0	0	0	0	0	0	0	0	0	0	3	0
7	8	3	18	0	0	0	0	0	0	0	0	0	0	0	0	0	0	0	3	0
7	8	3	19	0	0	0	0	0	0	0	0	0	0	0	0	0	0	0	3	0
7	8	3	20	0	0	0	0	0	0	0	0	0	0	0	0	0	0	0	3	0
7	9	3	14	0	0	0	0	0	0	0	0	0	0	0	0	0	0	0	3	0
7	9	3	15	0	0	0	0	0	0	0	0	0	0	0	0	0	0	0	3	0
7	9	3	16	0	0	0	0	0	0	0	0	0	0	0	0	0	0	0	3	0
7	9	3	17	0	0	0	0	0	0	0	0	0	0	0	0	0	0	0	3	0
7	9	3	18	0	0	0	0	0	0	0	0	0	0	0	0	0	0	0	3	0
7	9	3	19	0	0	0	0	0	0	0	0	0	0	0	0	0	0	0	3	0
7	9	3	20	0	0	0	0	0	0	0	0	0	0	0	0	0	0	0	3	0
7	9	3	21	0	0	0	0	0	0	0	0	0	0	0	0	0	0	0	3	0
7	10	3	15	0	0	0	0	0	0	0	0	0	0	0	0	0	0	0	3	0
7	10	3	16	0	0	0	0	0	0	0	0	0	0	0	0	0	0	0	3	0
7	10	3	17	0	0	0	0	0	0	0	0	0	0	0	0	0	0	0	3	0
7	10	3	18	0	0	0	0	0	0	0	0	0	0	0	0	0	0	0	3	0
7	10	3	19	0	0	0	0	0	0	0	0	0	0	0	0	0	0	0	3	0
7	10	3	20	0	0	0	0	0	0	0	0	0	0	0	0	0	0	0	3	0
7	10	3	21	0	0	0	0	0	0	0	0	0	0	0	0	0	0	0	3	0
7	10	3	22	0	0	0	0	0	0	0	0	0	0	0	0	0	0	0	3	0
7	11	3	16	0	0	0	0	0	0	0	0	0	0	0	0	0	0	0	3	0
7	11	3	17	0	0	0	0	0	0	0	0	0	0	0	0	0	0	0	3	0
7	11	3	18	0	0	0	0	0	0	0	0	0	0	0	0	0	0	0	3	0
7	11	3	19	0	0	0	0	0	0	0	0	0	0	0	0	0	0	0	3	0
7	11	3	20	0	0	0	0	0	0	0	0	0	0	0	0	0	0	0	3	0
7	11	3	21	0	0	0	0	0	0	0	0	0	0	0	0	0	0	0	3	0
7	11	3	22	0	0	0	0	0	0	0	0	0	0	0	0	0	0	0	3	0
7	11	3	23	0	0	0	0	0	0	0	0	0	0	0	0	0	0	0	3	0
7	12	3	17	0	0	0	0	0	0	0	0	0	0	0	0	0	0	0	3	0
7	12	3	18	0	0	0	0	0	0	0	0	0	0	0	0	0	0	0	3	0
7	12	3	19	0	0	0	0	0	0	0	0	0	0	0	0	0	0	0	3	0
7	12	3	20	0	0	0	0	0	0	0	0	0	0	0	0	0	0	0	3	0
7	12	3	21	0	0	0	0	0	0	0	0	0	0	0	0	0	0	0	3	0
7	12	3	22	0	0	0	0	0	0	0	0	0	0	0	0	0	0	0	3	0
7	12	3	23	0	0	0	0	0	0	0	0	0	0	0	0	0	0	0	3	0
7	12	3	24	0	0	0	0	0	0	0	0	0	0	0	0	0	0	0	3	0
7	13	3	18	0	0	0	0	0	0	0	0	0	0	0	0	0	0	0	3	0
7	13	3	19	0	0	0	0	0	0	0	0	0	0	0	0	0	0	0	3	0
7	13	3	20	0	0	0	0	0	0	0	0	0	0	0	0	0	0	0	3	0
7	13	3	21	0	0	0	0	0	0	0	0	0	0	0	0	0	0	0	3	0
7	13	3	22	0	0	0	0	0	0	0	0	0	0	0	0	0	0	0	3	0
7	13	3	23	0	0	0	0	0	0	0	0	0	0	0	0	0	0	0	3	0
7	13	3	24	0	0	0	0	0	0	0	0	0	0	0	0	0	0	0	3	0
7	13	3	25	0	0	0	0	0	0	0	0	0	0	0	0	0	0	0	3	0
7	14	3	19	0	0	0	0	0	0	0	0	0	0	0	0	0	0	0	3	0
7	14	3	20	0	0	0	0	0	0	0	0	0	0	0	0	0	0	0	3	0
7	14	3	21	0	0	0	0	0	0	0	0	0	0	0	0	0	0	0	3	0
7	14	3	22	0	0	0	0	0	0	0	0	0	0	0	0	0	0	0	3	0
7	14	3	23	0	0	0	0	0	0	0	0	0	0	0	0	0	0	0	3	0
7	14	3	24	0	0	0	0	0	0	0	0	0	0	0	0	0	0	0	3	0
7	14	3	25	0	0	0	0	0	0	0	0	0	0	0	0	0	0	0	3	0
7	14	3	26	0	0	0	0	0	0	0	0	0	0	0	0	0	0	0	3	0
7	15	3	20	0	0	0	0	0	0	0	0	0	0	0	0	0	0	0	3	0
7	15	3	21	0	0	0	0	0	0	0	0	0	0	0	0	0	0	0	3	0
7	15	3	22	0	0	0	0	0	0	0	0	0	0	0	0	0	0	0	3	0
7	15	3	23	0	0	0	0	0	0	0	0	0	0	0	0	0	0	0	3	0
7	15	3	24	0	0	0	0	0	0	0	0	0	0	0	0	0	0	0	3	0
7	15	3	25	0	0	0	0	0	0	0	0	0	0	0	0	0	0	0	3	0
7	15	3	26	0	0	0	0	0	0	0	0	0	0	0	0	0	0	0	3	0
7	15	3	27	0	0	0	0	0	0	0	0	0	0	0	0	0	0	0	3	0
7	16	3	21	0	0	0	0	0	0	0	0	0	0	0	0	0	0	0	3	0
7	16	3	22	0	0	0	0	0	0	0	0	0	0	0	0	0	0	0	3	0
7	16	3	23	0	0	0	0	0	0	0	0	0	0	0	0	0	0	0	3	0
7	16	3	24	0	0	0	0	0	0	0	0	0	0	0	0	0	0	0	3	0
7	16	3	25	0	0	0	0	0	0	0	0	0	0	0	0	0	0	0	3	0
7	16	3	26	0	0	0	0	0	0	0	0	0	0	0	0	0	0	0	3	0
7	16	3	27	0	0	0	0	0	0	0	0	0	0	0	0	0	0	0	3	0
7	16	3	28	0	0	0	0	0	0	0	0	0	0	0	0	0	0	0	3	0
7	17	3	22	0	0	0	0	0	0	0	0	0	0	0	0	0	0	0	3	0
7	17	3	23	0	0	0	0	0	0	0	0	0	0	0	0	0	0	0	3	0
7	17	3	24	0	0	0	0	0	0	0	0	0	0	0	0	0	0	0	3	0
7	17	3	25	0	0	0	0	0	0	0	0	0	0	0	0	0	0	0	3	0
7	17	3	26	0	0	0	0	0	0	0	0	0	0	0	0	0	0	0	3	0
7	17	3	27	0	0	0	0	0	0	0	0	0	0	0	0	0	0	0	3	0
7	17	3	28	0	0	0	0	0	0	0	0	0	0	0	0	0	0	0	3	0
7	17	3	29	0	0	0	0	0	0	0	0	0	0	0	0	0	0	0	3	0
7	18	3	23	0	0	0	0	0	0	0	0	0	0	0	0	0	0	0	3	0
7	18	3	24	0	0	0	0	0	0	0	0	0	0	0	0	0	0	0	3	0
7	18	3	25	0	0	0	0	0	0	0	0	0	0	0	0	0	0	0	3	0
7	18	3	26	0	0	0	0	0	0	0	0	0	0	0	0	0	0	0	3	0
7	18	3	27	0	0	0	0	0	0	0	0	0	0	0	0	0	0	0	3	0
7	18	3	28	0	0	0	0	0	0	0	0	0	0	0	0	0	0	0	3	0
7	18	3	29	0	0	0	0	0	0	0	0	0	0	0	0	0	0	0	3	0
7	18	3	30	0	0	0	0	0	0	0	0	0	0	0	0	0	0	0	3	0
7	19	3	24	0	0	0	0	0	0	0	0	0	0	0	0	0	0	0	3	0
7	19	3	25	0	0	0	0	0	0	0	0	0	0	0	0	0	0	0	3	0
7	19	3	26	0	0	0	0	0	0	0	0	0	0	0	0	0	0	0	3	0
7	19	3	27	0	0	0	0	0	0	0	0	0	0	0	0	0	0	0	3	0
7	19	3	28	0	0	0	0	0	0	0	0	0	0	0	0	0	0	0	3	0
7	19	3	29	0	0	0	0	0	0	0	0	0	0	0	0	0	0	0	3	0
7	19	3	30	0	0	0	0	0	0	0	0	0	0	0	0	0	0	0	3	0
7	19	3	31	0	0	0	0	0	0	0	0	0	0	0	0	0	0	0	3	0
7	20	3	25	0	0	0	0	0	0	0	0	0	0	0	0	0	0	0	3	0
7	20	3	26	0	0	0	0	0	0	0	0	0	0	0	0	0	0	0	3	0
7	20	3	27	0	0	0	0	0	0	0	0	0	0	0	0	0	0	0	3	0
7	20	3	28	0	0	0	0	0	0	0	0	0	0	0	0	0	0	0	3	0
7	20	3	29	0	0	0	0	0	0	0	0	0	0	0	0	0	0	0	3	0
7	20	3	30	0	0	0	0	0	0	0	0	0	0	0	0	0	0	0	3	0
7	20	3	31	0	0	0	0	0	0	0	0	0	0	0	0	0	0	0	3	0
7	20	3	32	0	0	0	0	0	0	0	0	0	0	0	0	0	0	0	3	0
7	21	3	26	0	0	0	0	0	0	0	0	0	0	0	0	0	0	0	3	0
7	21	3	27	0	0	0	0	0	0	0	0	0	0	0	0	0	0	0	3	0
7	21	3	28	0	0	0	0	0	0	0	0	0	0	0	0	0	0	0	3	0
7	21	3	29	0	0	0	0	0	0	0	0	0	0	0	0	0	0	0	3	0
7	21	3	30	0	0	0	0	0	0	0	0	0	0	0	0	0	0	0	3	0
7	21	3	31	0	0	0	0	0	0	0	0	0	0	0	0	0	0	0	3	0
7	21	3	32	0	0	0	0	0	0	0	0	0	0	0	0	0	0	0	3	0
7	21	3	33	0	0	0	0	0	0	0	0	0	0	0	0	0	0	0	3	0
7	22	3	27	0	0	0	0	0	0	0	0	0	0	0	0	0	0	0	3	0
7	22	3	28	0	0	0	0	0	0	0	0	0	0	0	0	0	0	0	3	0
7	22	3	29	0	0	0	0	0	0	0	0	0	0	0	0	0	0	0	3	0
7	22	3	30	0	0	0	0	0	0	0	0	0	0	0	0	0	0	0	3	0
7	22	3	31	0	0	0	0	0	0	0	0	0	0	0	0	0	0	0	3	0
7	22	3	32	0	0	0	0	0	0	0	0	0	0	0	0	0	0	0	3	0
7	22	3	33	0	0	0	0	0	0	0	0	0	0	0	0	0	0	0	3	0
7	22	3	34	0	0	0	0	0	0	0	0	0	0	0	0	0	0	0	3	0
7	23	3	28	0	0	0	0	0	0	0	0	0	0	0	0	0	0	0	3	0
7	23	3	29	0	0	0	0	0	0	0	0	0	0	0	0	0	0	0	3	0
7	23	3	30	0	0	0	0	0	0	0	0	0	0	0	0	0	0	0	3	0
7	23	3	31	0	0	0	0	0	0	0	0	0	0	0	0	0	0	0	3	0
7	23	3	32	0	0	0	0	0	0	0	0	0	0	0	0	0	0	0	3	0
7	23	3	33	0	0	0	0	0	0	0	0	0	0	0	0	0	0	0	3	0
7	23	3	34	0	0	0	0	0	0	0	0	0	0	0	0	0	0	0	3	0
7	23	3	35	0	0	0	0	0	0	0	0	0	0	0	0	0	0	0	3	0
7	24	3	29	0	0	0	0	0	0	0	0	0	0	0	0	0	0	0	3	0
7	24	3	30	0	0	0	0	0	0	0	0	0	0	0	0	0	0	0	3	0
7	24	3	31	0	0	0	0	0	0	0	0	0	0	0	0	0	0	0	3	0
7	24	3	32	0	0	0	0	0	0	0	0	0	0	0	0	0	0	0	3	0
7	24	3	33	0	0	0	0	0	0	0	0	0	0	0	0	0	0	0	3	0
7	24	3	34	0	0	0	0	0	0	0	0	0	0	0	0	0	0	0	3	0
7	24	3	35	0	0	0	0	0	0	0	0	0	0	0	0	0	0	0	3	0
7	24	3	36	0	0	0	0	0	0	0	0	0	0	0	0	0	0	0	3	0
7	25	3	30	0	0	0	0	0	0	0	0	0	0	0	0	0	0	0	3	0
7	25	3	31	0	0	0	0	0	0	0	0	0	0	0	0	0	0	0	3	0
7	25	3	32	0	0	0	0	0	0	0	0	0	0	0	0	0	0	0	3	0
7	25	3	33	0	0	0	0	0	0	0	0	0	0	0	0	0	0	0	3	0
7	25	3	34	0	0	0	0	0	0	0	0	0	0	0	0	0	0	0	3	0
7	25	3	35	0	0	0	0	0	0	0	0	0	0	0	0	0	0	0	3	0
7	25	3	36	0	0	0	0	0	0	0	0	0	0	0	0	0	0	0	3	0
7	25	3	37	0	0	0	0	0	0	0	0	0	0	0	0	0	0	0	3	0
7	26	3	31	0	0	0	0	0	0	0	0	0	0	0	0	0	0	0	3	0
7	26	3	32	0	0	0	0	0	0	0	0	0	0	0	0	0	0	0	3	0
7	26	3	33	0	0	0	0	0	0	0	0	0	0	0	0	0	0	0	3	0
7	26	3	34	0	0	0	0	0	0	0	0	0	0	0	0	0	0	0	3	0
7	26	3	35	0	0	0	0	0	0	0	0	0	0	0	0	0	0	0	3	0
7	26	3	36	0	0	0	0	0	0	0	0	0	0	0	0	0	0	0	3	0
7	26	3	37	0	0	0	0	0	0	0	0	0	0	0	0	0	0	0	3	0
7	26	3	38	0	0	0	0	0	0	0	0	0	0	0	0	0	0	0	3	0
7	27	3	32	0	0	0	0	0	0	0	0	0	0	0	0	0	0	0	3	0
7	27	3	33	0	0	0	0	0	0	0	0	0	0	0	0	0	0	0	3	0
7	27	3	34	0	0	0	0	0	0	0	0	0	0	0	0	0	0	0	3	0
7	27	3	35	0	0	0	0	0	0	0	0	0	0	0	0	0	0	0	3	0
7	27	3	36	0	0	0	0	0	0	0	0	0	0	0	0	0	0	0	3	0
7	27	3	37	0	0	0	0	0	0	0	0	0	0	0	0	0	0	0	3	0
7	27	3	38	0	0	0	0	0	0	0	0	0	0	0	0	0	0	0	3	0
7	27	3	39	0	0	0	0	0	0	0	0	0	0	0	0	0	0	0	3	0
7	28	3	33	0	0	0	0	0	0	0	0	0	0	0	0	0	0	0	3	0
7	28	3	34	0	0	0	0	0	0	0	0	0	0	0	0	0	0	0	3	0
7	28	3	35	0	0	0	0	0	0	0	0	0	0	0	0	0	0	0	3	0
7	28	3	36	0	0	0	0	0	0	0	0	0	0	0	0	0	0	0	3	0
7	28	3	37	0	0	0	0	0	0	0	0	0	0	0	0	0	0	0	3	0
7	28	3	38	0	0	0	0	0	0	0	0	0	0	0	0	0	0	0	3	0
7	28	3	39	0	0	0	0	0	0	0	0	0	0	0	0	0	0	0	3	0
7	28	3	40	0	0	0	0	0	0	0	0	0	0	0	0	0	0	0	3	0
7	29	3	34	0	0	0	0	0	0	0	0	0	0	0	0	0	0	0	3	0
7	29	3	35	0	0	0	0	0	0	0	0	0	0	0	0	0	0	0	3	0
7	29	3	36	0	0	0	0	0	0	0	0	0	0	0	0	0	0	0	3	0
7	29	3	37	0	0	0	0	0	0	0	0	0	0	0	0	0	0	0	3	0
7	29	3	38	0	0	0	0	0	0	0	0	0	0	0	0	0	0	0	3	0
7	29	3	39	0	0	0	0	0	0	0	0	0	0	0	0	0	0	0	3	0
7	29	3	40	0	0	0	0	0	0	0	0	0	0	0	0	0	0	0	3	0
7	29	3	41	0	0	0	0	0	0	0	0	0	0	0	0	0	0	0	3	0
7	30	3	35	0	0	0	0	0	0	0	0	0	0	0	0	0	0	0	3	0
7	30	3	36	0	0	0	0	0	0	0	0	0	0	0	0	0	0	0	3	0
7	30	3	37	0	0	0	0	0	0	0	0	0	0	0	0	0	0	0	3	0
7	30	3	38	0	0	0	0	0	0	0	0	0	0	0	0	0	0	0	3	0
7	30	3	39	0	0	0	0	0	0	0	0	0	0	0	0	0	0	0	3	0
7	30	3	40	0	0	0	0	0	0	0	0	0	0	0	0	0	0	0	3	0
7	30	3	41	0	0	0	0	0	0	0	0	0	0	0	0	0	0	0	3	0
7	30	3	42	0	0	0	0	0	0	0	0	0	0	0	0	0	0	0	3	0
7	31	3	36	0	0	0	0	0	0	0	0	0	0	0	0	0	0	0	3	0
7	31	3	37	0	0	0	0	0	0	0	0	0	0	0	0	0	0	0	3	0
7	31	3	38	0	0	0	0	0	0	0	0	0	0	0	0	0	0	0	3	0
7	31	3	39	0	0	0	0	0	0	0	0	0	0	0	0	0	0	0	3	0
7	31	3	40	0	0	0	0	0	0	0	0	0	0	0	0	0	0	0	3	0
7	31	3	41	0	0	0	0	0	0	0	0	0	0	0	0	0	0	0	3	0
7	31	3	42	0	0	0	0	0	0	0	0	0	0	0	0	0	0	0	3	0
7	31	3	43	0	0	0	0	0	0	0	0	0	0	0	0	0	0	0	3	0
7	32	3	37	0	0	0	0	0	0	0	0	0	0	0	0	0	0	0	3	0
7	32	3	38	0	0	0	0	0	0	0	0	0	0	0	0	0	0	0	3	0
7	32	3	39	0	0	0	0	0	0	0	0	0	0	0	0	0	0	0	3	0
7	32	3	40	0	0	0	0	0	0	0	0	0	0	0	0	0	0	0	3	0
7	32	3	41	0	0	0	0	0	0	0	0	0	0	0	0	0	0	0	3	0
7	32	3	42	0	0	0	0	0	0	0	0	0	0	0	0	0	0	0	3	0
7	32	3	43	0	0	0	0	0	0	0	0	0	0	0	0	0	0	0	3	0
7	32	3	44	0	0	0	0	0	0	0	0	0	0	0	0	0	0	0	3	0
7	33	3	38	0	0	0	0	0	0	0	0	0	0	0	0	0	0	0	3	0
7	33	3	39	0	0	0	0	0	0	0	0	0	0	0	0	0	0	0	3	0
7	33	3	40	0	0	0	0	0	0	0	0	0	0	0	0	0	0	0	3	0
7	33	3	41	0	0	0	0	0	0	0	0	0	0	0	0	0	0	0	3	0
7	33	3	42	0	0	0	0	0	0	0	0	0	0	0	0	0	0	0	3	0
7	33	3	43	0	0	0	0	0	0	0	0	0	0	0	0	0	0	0	3	0
7	33	3	44	0	0	0	0	0	0	0	0	0	0	0	0	0	0	0	3	0
7	33	3	45	0	0	0	0	0	0	0	0	0	0	0	0	0	0	0	3	0
7	34	3	39	0	0	0	0	0	0	0	0	0	0	0	0	0	0	0	3	0
7	34	3	40	0	0	0	0	0	0	0	0	0	0	0	0	0	0	0	3	0
7	34	3	41	0	0	0	0	0	0	0	0	0	0	0	0	0	0	0	3	0
7	34	3	42	0	0	0	0	0	0	0	0	0	0	0	0	0	0	0	3	0
7	34	3	43	0	0	0	0	0	0	0	0	0	0	0	0	0	0	0	3	0
7	34	3	44	0	0	0	0	0	0	0	0	0	0	0	0	0	0	0	3	0
7	34	3	45	0	0	0	0	0	0	0	0	0	0	0	0	0	0	0	3	0
7	34	3	46	0	0	0	0	0	0	0	0	0	0	0	0	0	0	0	3	0
7	35	3	40	0	0	0	0	0	0	0	0	0	0	0	0	0	0	0	3	0
7	35	3	41	0	0	0	0	0	0	0	0	0	0	0	0	0	0	0	3	0
7	35	3	42	0	0	0	0	0	0	0	0	0	0	0	0	0	0	0	3	0
7	35	3	43	0	0	0	0	0	0	0	0	0	0	0	0	0	0	0	3	0
7	35	3	44	0	0	0	0	0	0	0	0	0	0	0	0	0	0	0	3	0
7	35	3	45	0	0	0	0	0	0	0	0	0	0	0	0	0	0	0	3	0
7	35	3	46	0	0	0	0	0	0	0	0	0	0	0	0	0	0	0	3	0
7	35	3	47	0	0	0	0	0	0	0	0	0	0	0	0	0	0	0	3	0
7	36	3	41	0	0	0	0	0	0	0	0	0	0	0	0	0	0	0	3	0
7	36	3	42	0	0	0	0	0	0	0	0	0	0	0	0	0	0	0	3	0
7	36	3	43	0	0	0	0	0	0	0	0	0	0	0	0	0	0	0	3	0
7	36	3	44	0	0	0	0	0	0	0	0	0	0	0	0	0	0	0	3	0
7	36	3	45	0	0	0	0	0	0	0	0	0	0	0	0	0	0	0	3	0
7	36	3	46	0	0	0	0	0	0	0	0	0	0	0	0	0	0	0	3	0
7	36	3	47	0	0	0	0	0	0	0	0	0	0	0	0	0	0	0	3	0
7	36	3	48	0	0	0	0	0	0	0	0	0	0	0	0	0	0	0	3	0
7	37	3	42	0	0	0	0	0	0	0	0	0	0	0	0	0	0	0	3	0
7	37	3	43	0	0	0	0	0	0	0	0	0	0	0	0	0	0	0	3	0
7	37	3	44	0	0	0	0	0	0	0	0	0	0	0	0	0	0	0	3	0
7	37	3	45	0	0	0	0	0	0	0	0	0	0	0	0	0	0	0	3	0
7	37	3	46	0	0	0	0	0	0	0	0	0	0	0	0	0	0	0	3	0
7	37	3	47	0	0	0	0	0	0	0	0	0	0	0	0	0	0	0	3	0
7	37	3	48	0	0	0	0	0	0	0	0	0	0	0	0	0	0	0	3	0
7	37	3	49	0	0	0	0	0	0	0	0	0	0	0	0	0	0	0	3	0
7	38	3	43	0	0	0	0	0	0	0	0	0	0	0	0	0	0	0	3	0
7	38	3	44	0	0	0	0	0	0	0	0	0	0	0	0	0	0	0	3	0
7	38	3	45	0	0	0	0	0	0	0	0	0	0	0	0	0	0	0	3	0
7	38	3	46	0	0	0	0	0	0	0	0	0	0	0	0	0	0	0	3	0
7	38	3	47	0	0	0	0	0	0	0	0	0	0	0	0	0	0	0	3	0
7	38	3	48	0	0	0	0	0	0	0	0	0	0	0	0	0	0	0	3	0
7	38	3	49	0	0	0	0	0	0	0	0	0	0	0	0	0	0	0	3	0
7	38	3	50	0	0	0	0	0	0	0	0	0	0	0	0	0	0	0	3	0
7	39	3	44	0	0	0	0	0	0	0	0	0	0	0	0	0	0	0	3	0
7	39	3	45	0	0	0	0	0	0	0	0	0	0	0	0	0	0	0	3	0
7	39	3	46	0	0	0	0	0	0	0	0	0	0	0	0	0	0	0	3	0
7	39	3	47	0	0	0	0	0	0	0	0	0	0	0	0	0	0	0	3	0
7	39	3	48	0	0	0	0	0	0	0	0	0	0	0	0	0	0	0	3	0
7	39	3	49	0	0	0	0	0	0	0	0	0	0	0	0	0	0	0	3	0
7	39	3	50	0	0	0	0	0	0	0	0	0	0	0	0	0	0	0	3	0
7	39	3	51	0	0	0	0	0	0	0	0	0	0	0	0	0	0	0	3	0
7	40	3	45	0	0	0	0	0	0	0	0	0	0	0	0	0	0	0	3	0
7	40	3	46	0	0	0	0	0	0	0	0	0	0	0	0	0	0	0	3	0
7	40	3	47	0	0	0	0	0	0	0	0	0	0	0	0	0	0	0	3	0
7	40	3	48	0	0	0	0	0	0	0	0	0	0	0	0	0	0	0	3	0
7	40	3	49	0	0	0	0	0	0	0	0	0	0	0	0	0	0	0	3	0
7	40	3	50	0	0	0	0	0	0	0	0	0	0	0	0	0	0	0	3	0
7	40	3	51	0	0	0	0	0	0	0	0	0	0	0	0	0	0	0	3	0
7	40	3	52	0	0	0	0	0	0	0	0	0	0	0	0	0	0	0	3	0
7	41	3	46	0	0	0	0	0	0	0	0	0	0	0	0	0	0	0	3	0
7	41	3	47	0	0	0	0	0	0	0	0	0	0	0	0	0	0	0	3	0
7	41	3	48	0	0	0	0	0	0	0	0	0	0	0	0	0	0	0	3	0
7	41	3	49	0	0	0	0	0	0	0	0	0	0	0	0	0	0	0	3	0
7	41	3	50	0	0	0	0	0	0	0	0	0	0	0	0	0	0	0	3	0
7	41	3	51	0	0	0	0	0	0	0	0	0	0	0	0	0	0	0	3	0
7	41	3	52	0	0	0	0	0	0	0	0	0	0	0	0	0	0	0	3	0
7	41	3	53	0	0	0	0	0	0	0	0	0	0	0	0	0	0	0	3	0
7	42	3	47	0	0	0	0	0	0	0	0	0	0	0	0	0	0	0	3	0
7	42	3	48	0	0	0	0	0	0	0	0	0	0	0	0	0	0	0	3	0
7	42	3	49	0	0	0	0	0	0	0	0	0	0	0	0	0	0	0	3	0
7	42	3	50	0	0	0	0	0	0	0	0	0	0	0	0	0	0	0	3	0
7	42	3	51	0	0	0	0	0	0	0	0	0	0	0	0	0	0	0	3	0
7	42	3	52	0	0	0	0	0	0	0	0	0	0	0	0	0	0	0	3	0
7	42	3	53	0	0	0	0	0	0	0	0	0	0	0	0	0	0	0	3	0
7	42	3	54	0	0	0	0	0	0	0	0	0	0	0	0	0	0	0	3	0
7	43	3	48	0	0	0	0	0	0	0	0	0	0	0	0	0	0	0	3	0
7	43	3	49	0	0	0	0	0	0	0	0	0	0	0	0	0	0	0	3	0
7	43	3	50	0	0	0	0	0	0	0	0	0	0	0	0	0	0	0	3	0
7	43	3	51	0	0	0	0	0	0	0	0	0	0	0	0	0	0	0	3	0
7	43	3	52	0	0	0	0	0	0	0	0	0	0	0	0	0	0	0	3	0
7	43	3	53	0	0	0	0	0	0	0	0	0	0	0	0	0	0	0	3	0
7	43	3	54	0	0	0	0	0	0	0	0	0	0	0	0	0	0	0	3	0
7	43	3	55	0	0	0	0	0	0	0	0	0	0	0	0	0	0	0	3	0
7	44	3	49	0	0	0	0	0	0	0	0	0	0	0	0	0	0	0	3	0
7	44	3	50	0	0	0	0	0	0	0	0	0	0	0	0	0	0	0	3	0
7	44	3	51	0	0	0	0	0	0	0	0	0	0	0	0	0	0	0	3	0
7	44	3	52	0	0	0	0	0	0	0	0	0	0	0	0	0	0	0	3	0
7	44	3	53	0	0	0	0	0	0	0	0	0	0	0	0	0	0	0	3	0
7	44	3	54	0	0	0	0	0	0	0	0	0	0	0	0	0	0	0	3	0
7	44	3	55	0	0	0	0	0	0	0	0	0	0	0	0	0	0	0	3	0
7	44	3	56	0	0	0	0	0	0	0	0	0	0	0	0	0	0	0	3	0
7	45	3	50	0	0	0	0	0	0	0	0	0	0	0	0	0	0	0	3	0
7	45	3	51	0	0	0	0	0	0	0	0	0	0	0	0	0	0	0	3	0
7	45	3	52	0	0	0	0	0	0	0	0	0	0	0	0	0	0	0	3	0
7	45	3	53	0	0	0	0	0	0	0	0	0	0	0	0	0	0	0	3	0
7	45	3	54	0	0	0	0	0	0	0	0	0	0	0	0	0	0	0	3	0
7	45	3	55	0	0	0	0	0	0	0	0	0	0	0	0	0	0	0	3	0
7	45	3	56	0	0	0	0	0	0	0	0	0	0	0	0	0	0	0	3	0
7	45	3	57	0	0	0	0	0	0	0	0	0	0	0	0	0	0	0	3	0
7	46	3	51	0	0	0	0	0	0	0	0	0	0	0	0	0	0	0	3	0
7	46	3	52	0	0	0	0	0	0	0	0	0	0	0	0	0	0	0	3	0
7	46	3	53	0	0	0	0	0	0	0	0	0	0	0	0	0	0	0	3	0
7	46	3	54	0	0	0	0	0	0	0	0	0	0	0	0	0	0	0	3	0
7	46	3	55	0	0	0	0	0	0	0	0	0	0	0	0	0	0	0	3	0
7	46	3	56	0	0	0	0	0	0	0	0	0	0	0	0	0	0	0	3	0
7	46	3	57	0	0	0	0	0	0	0	0	0	0	0	0	0	0	0	3	0
7	46	3	58	0	0	0	0	0	0	0	0	0	0	0	0	0	0	0	3	0
7	47	3	52	0	0	0	0	0	0	0	0	0	0	0	0	0	0	0	3	0
7	47	3	53	0	0	0	0	0	0	0	0	0	0	0	0	0	0	0	3	0
7	47	3	54	0	0	0	0	0	0	0	0	0	0	0	0	0	0	0	3	0
7	47	3	55	0	0	0	0	0	0	0	0	0	0	0	0	0	0	0	3	0
7	47	3	56	0	0	0	0	0	0	0	0	0	0	0	0	0	0	0	3	0
7	47	3	57	0	0	0	0	0	0	0	0	0	0	0	0	0	0	0	3	0
7	47	3	58	0	0	0	0	0	0	0	0	0	0	0	0	0	0	0	3	0
7	47	3	59	0	0	0	0	0	0	0	0	0	0	0	0	0	0	0	3	0
7	48	3	53	0	0	0	0	0	0	0	0	0	0	0	0	0	0	0	3	0
7	48	3	54	0	0	0	0	0	0	0	0	0	0	0	0	0	0	0	3	0
7	48	3	55	0	0	0	0	0	0	0	0	0	0	0	0	0	0	0	3	0
7	48	3	56	0	0	0	0	0	0	0	0	0	0	0	0	0	0	0	3	0
7	48	3	57	0	0	0	0	0	0	0	0	0	0	0	0	0	0	0	3	0
7	48	3	58	0	0	0	0	0	0	0	0	0	0	0	0	0	0	0	3	0
7	48	3	59	0	0	0	0	0	0	0	0	0	0	0	0	0	0	0	3	0
7	48	3	60	0	0	0	0	0	0	0	0	0	0	0	0	0	0	0	3	0
7	49	3	54	0	0	0	0	0	0	0	0	0	0	0	0	0	0	0	3	0
7	49	3	55	0	0	0	0	0	0	0	0	0	0	0	0	0	0	0	3	0
7	49	3	56	0	0	0	0	0	0	0	0	0	0	0	0	0	0	0	3	0
7	49	3	57	0	0	0	0	0	0	0	0	0	0	0	0	0	0	0	3	0
7	49	3	58	0	0	0	0	0	0	0	0	0	0	0	0	0	0	0	3	0
7	49	3	59	0	0	0	0	0	0	0	0	0	0	0	0	0	0	0	3	0
7	49	3	60	0	0	0	0	0	0	0	0	0	0	0	0	0	0	0	3	0
7	49	3	61	0	0	0	0	0	0	0	0	0	0	0	0	0	0	0	3	0
7	50	3	55	0	0	0	0	0	0	0	0	0	0	0	0	0	0	0	3	0
7	50	3	56	0	0	0	0	0	0	0	0	0	0	0	0	0	0	0	3	0
7	50	3	57	0	0	0	0	0	0	0	0	0	0	0	0	0	0	0	3	0
7	50	3	58	0	0	0	0	0	0	0	0	0	0	0	0	0	0	0	3	0
7	50	3	59	0	0	0	0	0	0	0	0	0	0	0	0	0	0	0	3	0
7	50	3	60	0	0	0	0	0	0	0	0	0	0	0	0	0	0	0	3	0
7	50	3	61	0	0	0	0	0	0	0	0	0	0	0	0	0	0	0	3	0
7	50	3	62	0	0	0	0	0	0	0	0	0	0	0	0	0	0	0	3	0
7	51	3	56	0	0	0	0	0	0	0	0	0	0	0	0	0	0	0	3	0
7	51	3	57	0	0	0	0	0	0	0	0	0	0	0	0	0	0	0	3	0
7	51	3	58	0	0	0	0	0	0	0	0	0	0	0	0	0	0	0	3	0
7	51	3	59	0	0	0	0	0	0	0	0	0	0	0	0	0	0	0	3	0
7	51	3	60	0	0	0	0	0	0	0	0	0	0	0	0	0	0	0	3	0
7	51	3	61	0	0	0	0	0	0	0	0	0	0	0	0	0	0	0	3	0
7	51	3	62	0	0	0	0	0	0	0	0	0	0	0	0	0	0	0	3	0
7	51	3	63	0	0	0	0	0	0	0	0	0	0	0	0	0	0	0	3	0
7	52	3	57	0	0	0	0	0	0	0	0	0	0	0	0	0	0	0	3	0
7	52	3	58	0	0	0	0	0	0	0	0	0	0	0	0	0	0	0	3	0
7	52	3	59	0	0	0	0	0	0	0	0	0	0	0	0	0	0	0	3	0
7	52	3	60	0	0	0	0	0	0	0	0	0	0	0	0	0	0	0	3	0
7	52	3	61	0	0	0	0	0	0	0	0	0	0	0	0	0	0	0	3	0
7	52	3	62	0	0	0	0	0	0	0	0	0	0	0	0	0	0	0	3	0
7	52	3	63	0	0	0	0	0	0	0	0	0	0	0	0	0	0	0	3	0
7	52	3	64	0	0	0	0	0	0	0	0	0	0	0	0	0	0	0	3	0
7	53	3	58	0	0	0	0	0	0	0	0	0	0	0	0	0	0	0	3	0
7	53	3	59	0	0	0	0	0	0	0	0	0	0	0	0	0	0	0	3	0
7	53	3	60	0	0	0	0	0	0	0	0	0	0	0	0	0	0	0	3	0
7	53	3	61	0	0	0	0	0	0	0	0	0	0	0	0	0	0	0	3	0
7	53	3	62	0	0	0	0	0	0	0	0	0	0	0	0	0	0	0	3	0
7	53	3	63	0	0	0	0	0	0	0	0	0	0	0	0	0	0	0	3	0
7	53	3	64	0	0	0	0	0	0	0	0	0	0	0	0	0	0	0	3	0
7	53	3	65	0	0	0	0	0	0	0	0	0	0	0	0	0	0	0	3	0
7	54	3	59	0	0	0	0	0	0	0	0	0	0	0	0	0	0	0	3	0
7	54	3	60	0	0	0	0	0	0	0	0	0	0	0	0	0	0	0	3	0
7	54	3	61	0	0	0	0	0	0	0	0	0	0	0	0	0	0	0	3	0
7	54	3	62	0	0	0	0	0	0	0	0	0	0	0	0	0	0	0	3	0
7	54	3	63	0	0	0	0	0	0	0	0	0	0	0	0	0	0	0	3	0
7	54	3	64	0	0	0	0	0	0	0	0	0	0	0	0	0	0	0	3	0
7	54	3	65	0	0	0	0	0	0	0	0	0	0	0	0	0	0	0	3	0
7	54	3	66	0	0	0	0	0	0	0	0	0	0	0	0	0	0	0	3	0
7	55	3	60	0	0	0	0	0	0	0	0	0	0	0	0	0	0	0	3	0
7	55	3	61	0	0	0	0	0	0	0	0	0	0	0	0	0	0	0	3	0
7	55	3	62	0	0	0	0	0	0	0	0	0	0	0	0	0	0	0	3	0
7	55	3	63	0	0	0	0	0	0	0	0	0	0	0	0	0	0	0	3	0
7	55	3	64	0	0	0	0	0	0	0	0	0	0	0	0	0	0	0	3	0
7	55	3	65	0	0	0	0	0	0	0	0	0	0	0	0	0	0	0	3	0
7	55	3	66	0	0	0	0	0	0	0	0	0	0	0	0	0	0	0	3	0
7	55	3	67	0	0	0	0	0	0	0	0	0	0	0	0	0	0	0	3	0
7	56	3	61	0	0	0	0	0	0	0	0	0	0	0	0	0	0	0	3	0
7	56	3	62	0	0	0	0	0	0	0	0	0	0	0	0	0	0	0	3	0
7	56	3	63	0	0	0	0	0	0	0	0	0	0	0	0	0	0	0	3	0
7	56	3	64	0	0	0	0	0	0	0	0	0	0	0	0	0	0	0	3	0
7	56	3	65	0	0	0	0	0	0	0	0	0	0	0	0	0	0	0	3	0
7	56	3	66	0	0	0	0	0	0	0	0	0	0	0	0	0	0	0	3	0
7	56	3	67	0	0	0	0	0	0	0	0	0	0	0	0	0	0	0	3	0
7	56	3	68	0	0	0	0	0	0	0	0	0	0	0	0	0	0	0	3	0
7	57	3	62	0	0	0	0	0	0	0	0	0	0	0	0	0	0	0	3	0
7	57	3	63	0	0	0	0	0	0	0	0	0	0	0	0	0	0	0	3	0
7	57	3	64	0	0	0	0	0	0	0	0	0	0	0	0	0	0	0	3	0
7	57	3	65	0	0	0	0	0	0	0	0	0	0	0	0	0	0	0	3	0
7	57	3	66	0	0	0	0	0	0	0	0	0	0	0	0	0	0	0	3	0
7	57	3	67	0	0	0	0	0	0	0	0	0	0	0	0	0	0	0	3	0
7	57	3	68	0	0	0	0	0	0	0	0	0	0	0	0	0	0	0	3	0
7	57	3	69	0	0	0	0	0	0	0	0	0	0	0	0	0	0	0	3	0
7	58	3	63	0	0	0	0	0	0	0	0	0	0	0	0	0	0	0	3	0
7	58	3	64	0	0	0	0	0	0	0	0	0	0	0	0	0	0	0	3	0
7	58	3	65	0	0	0	0	0	0	0	0	0	0	0	0	0	0	0	3	0
7	58	3	66	0	0	0	0	0	0	0	0	0	0	0	0	0	0	0	3	0
7	58	3	67	0	0	0	0	0	0	0	0	0	0	0	0	0	0	0	3	0
7	58	3	68	0	0	0	0	0	0	0	0	0	0	0	0	0	0	0	3	0
7	58	3	69	0	0	0	0	0	0	0	0	0	0	0	0	0	0	0	3	0
7	58	3	70	0	0	0	0	0	0	0	0	0	0	0	0	0	0	0	3	0
7	59	3	64	0	0	0	0	0	0	0	0	0	0	0	0	0	0	0	3	0
7	59	3	65	0	0	0	0	0	0	0	0	0	0	0	0	0	0	0	3	0
7	59	3	66	0	0	0	0	0	0	0	0	0	0	0	0	0	0	0	3	0
7	59	3	67	0	0	0	0	0	0	0	0	0	0	0	0	0	0	0	3	0
7	59	3	68	0	0	0	0	0	0	0	0	0	0	0	0	0	0	0	3	0
7	59	3	69	0	0	0	0	0	0	0	0	0	0	0	0	0	0	0	3	0
7	59	3	70	0	0	0	0	0	0	0	0	0	0	0	0	0	0	0	3	0
7	59	3	71	0	0	0	0	0	0	0	0	0	0	0	0	0	0	0	3	0
7	60	3	65	0	0	0	0	0	0	0	0	0	0	0	0	0	0	0	3	0
7	60	3	66	0	0	0	0	0	0	0	0	0	0	0	0	0	0	0	3	0
7	60	3	67	0	0	0	0	0	0	0	0	0	0	0	0	0	0	0	3	0
7	60	3	68	0	0	0	0	0	0	0	0	0	0	0	0	0	0	0	3	0
7	60	3	69	0	0	0	0	0	0	0	0	0	0	0	0	0	0	0	3	0
7	60	3	70	0	0	0	0	0	0	0	0	0	0	0	0	0	0	0	3	0
7	60	3	71	0	0	0	0	0	0	0	0	0	0	0	0	0	0	0	3	0
7	60	3	72	0	0	0	0	0	0	0	0	0	0	0	0	0	0	0	3	0
7	61	3	66	0	0	0	0	0	0	0	0	0	0	0	0	0	0	0	3	0
7	61	3	67	0	0	0	0	0	0	0	0	0	0	0	0	0	0	0	3	0
7	61	3	68	0	0	0	0	0	0	0	0	0	0	0	0	0	0	0	3	0
7	61	3	69	0	0	0	0	0	0	0	0	0	0	0	0	0	0	0	3	0
7	61	3	70	0	0	0	0	0	0	0	0	0	0	0	0	0	0	0	3	0
7	61	3	71	0	0	0	0	0	0	0	0	0	0	0	0	0	0	0	3	0
7	61	3	72	0	0	0	0	0	0	0	0	0	0	0	0	0	0	0	3	0
7	61	3	73	0	0	0	0	0	0	0	0	0	0	0	0	0	0	0	3	0
7	62	3	67	0	0	0	0	0	0	0	0	0	0	0	0	0	0	0	3	0
7	62	3	68	0	0	0	0	0	0	0	0	0	0	0	0	0	0	0	3	0
7	62	3	69	0	0	0	0	0	0	0	0	0	0	0	0	0	0	0	3	0
7	62	3	70	0	0	0	0	0	0	0	0	0	0	0	0	0	0	0	3	0
7	62	3	71	0	0	0	0	0	0	0	0	0	0	0	0	0	0	0	3	0
7	62	3	72	0	0	0	0	0	0	0	0	0	0	0	0	0	0	0	3	0
7	62	3	73	0	0	0	0	0	0	0	0	0	0	0	0	0	0	0	3	0
7	62	3	74	0	0	0	0	0	0	0	0	0	0	0	0	0	0	0	3	0
7	63	3	68	0	0	0	0	0	0	0	0	0	0	0	0	0	0	0	3	0
7	63	3	69	0	0	0	0	0	0	0	0	0	0	0	0	0	0	0	3	0
7	63	3	70	0	0	0	0	0	0	0	0	0	0	0	0	0	0	0	3	0
7	63	3	71	0	0	0	0	0	0	0	0	0	0	0	0	0	0	0	3	0
7	63	3	72	0	0	0	0	0	0	0	0	0	0	0	0	0	0	0	3	0
7	63	3	73	0	0	0	0	0	0	0	0	0	0	0	0	0	0	0	3	0
7	63	3	74	0	0	0	0	0	0	0	0	0	0	0	0	0	0	0	3	0
7	63	3	75	0	0	0	0	0	0	0	0	0	0	0	0	0	0	0	3	0
7	64	3	69	0	0	0	0	0	0	0	0	0	0	0	0	0	0	0	3	0
7	64	3	70	0	0	0	0	0	0	0	0	0	0	0	0	0	0	0	3	0
7	64	3	71	0	0	0	0	0	0	0	0	0	0	0	0	0	0	0	3	0
7	64	3	72	0	0	0	0	0	0	0	0	0	0	0	0	0	0	0	3	0
7	64	3	73	0	0	0	0	0	0	0	0	0	0	0	0	0	0	0	3	0
7	64	3	74	0	0	0	0	0	0	0	0	0	0	0	0	0	0	0	3	0
7	64	3	75	0	0	0	0	0	0	0	0	0	0	0	0	0	0	0	3	0
7	64	3	76	0	0	0	0	0	0	0	0	0	0	0	0	0	0	0	3	0
7	65	3	70	0	0	0	0	0	0	0	0	0	0	0	0	0	0	0	3	0
7	65	3	71	0	0	0	0	0	0	0	0	0	0	0	0	0	0	0	3	0
7	65	3	72	0	0	0	0	0	0	0	0	0	0	0	0	0	0	0	3	0
7	65	3	73	0	0	0	0	0	0	0	0	0	0	0	0	0	0	0	3	0
7	65	3	74	0	0	0	0	0	0	0	0	0	0	0	0	0	0	0	3	0
7	65	3	75	0	0	0	0	0	0	0	0	0	0	0	0	0	0	0	3	0
7	65	3	76	0	0	0	0	0	0	0	0	0	0	0	0	0	0	0	3	0
7	65	3	77	0	0	0	0	0	0	0	0	0	0	0	0	0	0	0	3	0
7	66	3	71	0	0	0	0	0	0	0	0	0	0	0	0	0	0	0	3	0
7	66	3	72	0	0	0	0	0	0	0	0	0	0	0	0	0	0	0	3	0
7	66	3	73	0	0	0	0	0	0	0	0	0	0	0	0	0	0	0	3	0
7	66	3	74	0	0	0	0	0	0	0	0	0	0	0	0	0	0	0	3	0
7	66	3	75	0	0	0	0	0	0	0	0	0	0	0	0	0	0	0	3	0
7	66	3	76	0	0	0	0	0	0	0	0	0	0	0	0	0	0	0	3	0
7	66	3	77	0	0	0	0	0	0	0	0	0	0	0	0	0	0	0	3	0
7	66	3	78	0	0	0	0	0	0	0	0	0	0	0	0	0	0	0	3	0
7	67	3	72	0	0	0	0	0	0	0	0	0	0	0	0	0	0	0	3	0
7	67	3	73	0	0	0	0	0	0	0	0	0	0	0	0	0	0	0	3	0
7	67	3	74	0	0	0	0	0	0	0	0	0	0	0	0	0	0	0	3	0
7	67	3	75	0	0	0	0	0	0	0	0	0	0	0	0	0	0	0	3	0
7	67	3	76	0	0	0	0	0	0	0	0	0	0	0	0	0	0	0	3	0
7	67	3	77	0	0	0	0	0	0	0	0	0	0	0	0	0	0	0	3	0
7	67	3	78	0	0	0	0	0	0	0	0	0	0	0	0	0	0	0	3	0
7	67	3	79	0	0	0	0	0	0	0	0	0	0	0	0	0	0	0	3	0
7	68	3	73	0	0	0	0	0	0	0	0	0	0	0	0	0	0	0	3	0
7	68	3	74	0	0	0	0	0	0	0	0	0	0	0	0	0	0	0	3	0
7	68	3	75	0	0	0	0	0	0	0	0	0	0	0	0	0	0	0	3	0
7	68	3	76	0	0	0	0	0	0	0	0	0	0	0	0	0	0	0	3	0
7	68	3	77	0	0	0	0	0	0	0	0	0	0	0	0	0	0	0	3	0
7	68	3	78	0	0	0	0	0	0	0	0	0	0	0	0	0	0	0	3	0
7	68	3	79	0	0	0	0	0	0	0	0	0	0	0	0	0	0	0	3	0
7	68	3	80	0	0	0	0	0	0	0	0	0	0	0	0	0	0	0	3	0
7	69	3	74	0	0	0	0	0	0	0	0	0	0	0	0	0	0	0	3	0
7	69	3	75	0	0	0	0	0	0	0	0	0	0	0	0	0	0	0	3	0
7	69	3	76	0	0	0	0	0	0	0	0	0	0	0	0	0	0	0	3	0
7	69	3	77	0	0	0	0	0	0	0	0	0	0	0	0	0	0	0	3	0
7	69	3	78	0	0	0	0	0	0	0	0	0	0	0	0	0	0	0	3	0
7	69	3	79	0	0	0	0	0	0	0	0	0	0	0	0	0	0	0	3	0
7	69	3	80	0	0	0	0	0	0	0	0	0	0	0	0	0	0	0	3	0
7	69	3	81	0	0	0	0	0	0	0	0	0	0	0	0	0	0	0	3	0
7	70	3	75	0	0	0	0	0	0	0	0	0	0	0	0	0	0	0	3	0
7	70	3	76	0	0	0	0	0	0	0	0	0	0	0	0	0	0	0	3	0
7	70	3	77	0	0	0	0	0	0	0	0	0	0	0	0	0	0	0	3	0
7	70	3	78	0	0	0	0	0	0	0	0	0	0	0	0	0	0	0	3	0
7	70	3	79	0	0	0	0	0	0	0	0	0	0	0	0	0	0	0	3	0
7	70	3	80	0	0	0	0	0	0	0	0	0	0	0	0	0	0	0	3	0
7	70	3	81	0	0	0	0	0	0	0	0	0	0	0	0	0	0	0	3	0
7	70	3	82	0	0	0	0	0	0	0	0	0	0	0	0	0	0	0	3	0
7	71	3	76	0	0	0	0	0	0	0	0	0	0	0	0	0	0	0	3	0
7	71	3	77	0	0	0	0	0	0	0	0	0	0	0	0	0	0	0	3	0
7	71	3	78	0	0	0	0	0	0	0	0	0	0	0	0	0	0	0	3	0
7	71	3	79	0	0	0	0	0	0	0	0	0	0	0	0	0	0	0	3	0
7	71	3	80	0	0	0	0	0	0	0	0	0	0	0	0	0	0	0	3	0
7	71	3	81	0	0	0	0	0	0	0	0	0	0	0	0	0	0	0	3	0
7	71	3	82	0	0	0	0	0	0	0	0	0	0	0	0	0	0	0	3	0
7	71	3	83	0	0	0	0	0	0	0	0	0	0	0	0	0	0	0	3	0
7	72	3	77	0	0	0	0	0	0	0	0	0	0	0	0	0	0	0	3	0
7	72	3	78	0	0	0	0	0	0	0	0	0	0	0	0	0	0	0	3	0
7	72	3	79	0	0	0	0	0	0	0	0	0	0	0	0	0	0	0	3	0
7	72	3	80	0	0	0	0	0	0	0	0	0	0	0	0	0	0	0	3	0
7	72	3	81	0	0	0	0	0	0	0	0	0	0	0	0	0	0	0	3	0
7	72	3	82	0	0	0	0	0	0	0	0	0	0	0	0	0	0	0	3	0
7	72	3	83	0	0	0	0	0	0	0	0	0	0	0	0	0	0	0	3	0
7	72	3	84	0	0	0	0	0	0	0	0	0	0	0	0	0	0	0	3	0
7	73	3	78	0	0	0	0	0	0	0	0	0	0	0	0	0	0	0	3	0
7	73	3	79	0	0	0	0	0	0	0	0	0	0	0	0	0	0	0	3	0
7	73	3	80	0	0	0	0	0	0	0	0	0	0	0	0	0	0	0	3	0
7	73	3	81	0	0	0	0	0	0	0	0	0	0	0	0	0	0	0	3	0
7	73	3	82	0	0	0	0	0	0	0	0	0	0	0	0	0	0	0	3	0
7	73	3	83	0	0	0	0	0	0	0	0	0	0	0	0	0	0	0	3	0
7	73	3	84	0	0	0	0	0	0	0	0	0	0	0	0	0	0	0	3	0
7	73	3	85	0	0	0	0	0	0	0	0	0	0	0	0	0	0	0	3	0
7	74	3	79	0	0	0	0	0	0	0	0	0	0	0	0	0	0	0	3	0
7	74	3	80	0	0	0	0	0	0	0	0	0	0	0	0	0	0	0	3	0
7	74	3	81	0	0	0	0	0	0	0	0	0	0	0	0	0	0	0	3	0
7	74	3	82	0	0	0	0	0	0	0	0	0	0	0	0	0	0	0	3	0
7	74	3	83	0	0	0	0	0	0	0	0	0	0	0	0	0	0	0	3	0
7	74	3	84	0	0	0	0	0	0	0	0	0	0	0	0	0	0	0	3	0
7	74	3	85	0	0	0	0	0	0	0	0	0	0	0	0	0	0	0	3	0
7	74	3	86	0	0	0	0	0	0	0	0	0	0	0	0	0	0	0	3	0
7	75	3	80	0	0	0	0	0	0	0	0	0	0	0	0	0	0	0	3	0
7	75	3	81	0	0	0	0	0	0	0	0	0	0	0	0	0	0	0	3	0
7	75	3	82	0	0	0	0	0	0	0	0	0	0	0	0	0	0	0	3	0
7	75	3	83	0	0	0	0	0	0	0	0	0	0	0	0	0	0	0	3	0
7	75	3	84	0	0	0	0	0	0	0	0	0	0	0	0	0	0	0	3	0
7	75	3	85	0	0	0	0	0	0	0	0	0	0	0	0	0	0	0	3	0
7	75	3	86	0	0	0	0	0	0	0	0	0	0	0	0	0	0	0	3	0
7	75	3	87	0	0	0	0	0	0	0	0	0	0	0	0	0	0	0	3	0
7	76	3	81	0	0	0	0	0	0	0	0	0	0	0	0	0	0	0	3	0
7	76	3	82	0	0	0	0	0	0	0	0	0	0	0	0	0	0	0	3	0
7	76	3	83	0	0	0	0	0	0	0	0	0	0	0	0	0	0	0	3	0
7	76	3	84	0	0	0	0	0	0	0	0	0	0	0	0	0	0	0	3	0
7	76	3	85	0	0	0	0	0	0	0	0	0	0	0	0	0	0	0	3	0
7	76	3	86	0	0	0	0	0	0	0	0	0	0	0	0	0	0	0	3	0
7	76	3	87	0	0	0	0	0	0	0	0	0	0	0	0	0	0	0	3	0
7	76	3	88	0	0	0	0	0	0	0	0	0	0	0	0	0	0	0	3	0
7	77	3	82	0	0	0	0	0	0	0	0	0	0	0	0	0	0	0	3	0
7	77	3	83	0	0	0	0	0	0	0	0	0	0	0	0	0	0	0	3	0
7	77	3	84	0	0	0	0	0	0	0	0	0	0	0	0	0	0	0	3	0
7	77	3	85	0	0	0	0	0	0	0	0	0	0	0	0	0	0	0	3	0
7	77	3	86	0	0	0	0	0	0	0	0	0	0	0	0	0	0	0	3	0
7	77	3	87	0	0	0	0	0	0	0	0	0	0	0	0	0	0	0	3	0
7	77	3	88	0	0	0	0	0	0	0	0	0	0	0	0	0	0	0	3	0
7	77	3	89	0	0	0	0	0	0	0	0	0	0	0	0	0	0	0	3	0
7	78	3	83	0	0	0	0	0	0	0	0	0	0	0	0	0	0	0	3	0
7	78	3	84	0	0	0	0	0	0	0	0	0	0	0	0	0	0	0	3	0
7	78	3	85	0	0	0	0	0	0	0	0	0	0	0	0	0	0	0	3	0
7	78	3	86	0	0	0	0	0	0	0	0	0	0	0	0	0	0	0	3	0
7	78	3	87	0	0	0	0	0	0	0	0	0	0	0	0	0	0	0	3	0
7	78	3	88	0	0	0	0	0	0	0	0	0	0	0	0	0	0	0	3	0
7	78	3	89	0	0	0	0	0	0	0	0	0	0	0	0	0	0	0	3	0
7	78	3	90	0	0	0	0	0	0	0	0	0	0	0	0	0	0	0	3	0
7	79	3	84	0	0	0	0	0	0	0	0	0	0	0	0	0	0	0	3	0
7	79	3	85	0	0	0	0	0	0	0	0	0	0	0	0	0	0	0	3	0
7	79	3	86	0	0	0	0	0	0	0	0	0	0	0	0	0	0	0	3	0
7	79	3	87	0	0	0	0	0	0	0	0	0	0	0	0	0	0	0	3	0
7	79	3	88	0	0	0	0	0	0	0	0	0	0	0	0	0	0	0	3	0
7	79	3	89	0	0	0	0	0	0	0	0	0	0	0	0	0	0	0	3	0
7	79	3	90	0	0	0	0	0	0	0	0	0	0	0	0	0	0	0	3	0
7	79	3	91	0	0	0	0	0	0	0	0	0	0	0	0	0	0	0	3	0
7	80	3	85	0	0	0	0	0	0	0	0	0	0	0	0	0	0	0	3	0
7	80	3	86	0	0	0	0	0	0	0	0	0	0	0	0	0	0	0	3	0
7	80	3	87	0	0	0	0	0	0	0	0	0	0	0	0	0	0	0	3	0
7	80	3	88	0	0	0	0	0	0	0	0	0	0	0	0	0	0	0	3	0
7	80	3	89	0	0	0	0	0	0	0	0	0	0	0	0	0	0	0	3	0
7	80	3	90	0	0	0	0	0	0	0	0	0	0	0	0	0	0	0	3	0
7	80	3	91	0	0	0	0	0	0	0	0	0	0	0	0	0	0	0	3	0
7	80	3	92	0	0	0	0	0	0	0	0	0	0	0	0	0	0	0	3	0
7	81	3	86	0	0	0	0	0	0	0	0	0	0	0	0	0	0	0	3	0
7	81	3	87	0	0	0	0	0	0	0	0	0	0	0	0	0	0	0	3	0
7	81	3	88	0	0	0	0	0	0	0	0	0	0	0	0	0	0	0	3	0
7	81	3	89	0	0	0	0	0	0	0	0	0	0	0	0	0	0	0	3	0
7	81	3	90	0	0	0	0	0	0	0	0	0	0	0	0	0	0	0	3	0
7	81	3	91	0	0	0	0	0	0	0	0	0	0	0	0	0	0	0	3	0
7	81	3	92	0	0	0	0	0	0	0	0	0	0	0	0	0	0	0	3	0
7	81	3	93	0	0	0	0	0	0	0	0	0	0	0	0	0	0	0	3	0
7	82	3	87	0	0	0	0	0	0	0	0	0	0	0	0	0	0	0	3	0
7	82	3	88	0	0	0	0	0	0	0	0	0	0	0	0	0	0	0	3	0
7	82	3	89	0	0	0	0	0	0	0	0	0	0	0	0	0	0	0	3	0
7	82	3	90	0	0	0	0	0	0	0	0	0	0	0	0	0	0	0	3	0
7	82	3	91	0	0	0	0	0	0	0	0	0	0	0	0	0	0	0	3	0
7	82	3	92	0	0	0	0	0	0	0	0	0	0	0	0	0	0	0	3	0
7	82	3	93	0	0	0	0	0	0	0	0	0	0	0	0	0	0	0	3	0
7	82	3	94	0	0	0	0	0	0	0	0	0	0	0	0	0	0	0	3	0
7	83	3	88	0	0	0	0	0	0	0	0	0	0	0	0	0	0	0	3	0
7	83	3	89	0	0	0	0	0	0	0	0	0	0	0	0	0	0	0	3	0
7	83	3	90	0	0	0	0	0	0	0	0	0	0	0	0	0	0	0	3	0
7	83	3	91	0	0	0	0	0	0	0	0	0	0	0	0	0	0	0	3	0
7	83	3	92	0	0	0	0	0	0	0	0	0	0	0	0	0	0	0	3	0
7	83	3	93	0	0	0	0	0	0	0	0	0	0	0	0	0	0	0	3	0
7	83	3	94	0	0	0	0	0	0	0	0	0	0	0	0	0	0	0	3	0
7	83	3	95	0	0	0	0	0	0	0	0	0	0	0	0	0	0	0	3	0
7	84	3	89	0	0	0	0	0	0	0	0	0	0	0	0	0	0	0	3	0
7	84	3	90	0	0	0	0	0	0	0	0	0	0	0	0	0	0	0	3	0
7	84	3	91	0	0	0	0	0	0	0	0	0	0	0	0	0	0	0	3	0
7	84	3	92	0	0	0	0	0	0	0	0	0	0	0	0	0	0	0	3	0
7	84	3	93	0	0	0	0	0	0	0	0	0	0	0	0	0	0	0	3	0
7	84	3	94	0	0	0	0	0	0	0	0	0	0	0	0	0	0	0	3	0
7	84	3	95	0	0	0	0	0	0	0	0	0	0	0	0	0	0	0	3	0
7	84	3	96	0	0	0	0	0	0	0	0	0	0	0	0	0	0	0	3	0
7	85	3	90	0	0	0	0	0	0	0	0	0	0	0	0	0	0	0	3	0
7	85	3	91	0	0	0	0	0	0	0	0	0	0	0	0	0	0	0	3	0
7	85	3	92	0	0	0	0	0	0	0	0	0	0	0	0	0	0	0	3	0
7	85	3	93	0	0	0	0	0	0	0	0	0	0	0	0	0	0	0	3	0
7	85	3	94	0	0	0	0	0	0	0	0	0	0	0	0	0	0	0	3	0
7	85	3	95	0	0	0	0	0	0	0	0	0	0	0	0	0	0	0	3	0
7	85	3	96	0	0	0	0	0	0	0	0	0	0	0	0	0	0	0	3	0
7	85	3	97	0	0	0	0	0	0	0	0	0	0	0	0	0	0	0	3	0
7	86	3	91	0	0	0	0	0	0	0	0	0	0	0	0	0	0	0	3	0
7	86	3	92	0	0	0	0	0	0	0	0	0	0	0	0	0	0	0	3	0
7	86	3	93	0	0	0	0	0	0	0	0	0	0	0	0	0	0	0	3	0
7	86	3	94	0	0	0	0	0	0	0	0	0	0	0	0	0	0	0	3	0
7	86	3	95	0	0	0	0	0	0	0	0	0	0	0	0	0	0	0	3	0
7	86	3	96	0	0	0	0	0	0	0	0	0	0	0	0	0	0	0	3	0
7	86	3	97	0	0	0	0	0	0	0	0	0	0	0	0	0	0	0	3	0
7	86	3	98	0	0	0	0	0	0	0	0	0	0	0	0	0	0	0	3	0
7	87	3	92	0	0	0	0	0	0	0	0	0	0	0	0	0	0	0	3	0
7	87	3	93	0	0	0	0	0	0	0	0	0	0	0	0	0	0	0	3	0
7	87	3	94	0	0	0	0	0	0	0	0	0	0	0	0	0	0	0	3	0
7	87	3	95	0	0	0	0	0	0	0	0	0	0	0	0	0	0	0	3	0
7	87	3	96	0	0	0	0	0	0	0	0	0	0	0	0	0	0	0	3	0
7	87	3	97	0	0	0	0	0	0	0	0	0	0	0	0	0	0	0	3	0
7	87	3	98	0	0	0	0	0	0	0	0	0	0	0	0	0	0	0	3	0
7	87	3	99	0	0	0	0	0	0	0	0	0	0	0	0	0	0	0	3	0
7	88	3	93	0	0	0	0	0	0	0	0	0	0	0	0	0	0	0	3	0
7	88	3	94	0	0	0	0	0	0	0	0	0	0	0	0	0	0	0	3	0
7	88	3	95	0	0	0	0	0	0	0	0	0	0	0	0	0	0	0	3	0
7	88	3	96	0	0	0	0	0	0	0	0	0	0	0	0	0	0	0	3	0
7	88	3	97	0	0	0	0	0	0	0	0	0	0	0	0	0	0	0	3	0
7	88	3	98	0	0	0	0	0	0	0	0	0	0	0	0	0	0	0	3	0
7	88	3	99	0	0	0	0	0	0	0	0	0	0	0	0	0	0	0	3	0
7	88	3	100	0	0	0	0	0	0	0	0	0	0	0	0	0	0	0	3	0
7	89	3	94	0	0	0	0	0	0	0	0	0	0	0	0	0	0	0	3	0
7	89	3	95	0	0	0	0	0	0	0	0	0	0	0	0	0	0	0	3	0
7	89	3	96	0	0	0	0	0	0	0	0	0	0	0	0	0	0	0	3	0
7	89	3	97	0	0	0	0	0	0	0	0	0	0	0	0	0	0	0	3	0
7	89	3	98	0	0	0	0	0	0	0	0	0	0	0	0	0	0	0	3	0
7	89	3	99	0	0	0	0	0	0	0	0	0	0	0	0	0	0	0	3	0
7	89	3	100	0	0	0	0	0	0	0	0	0	0	0	0	0	0	0	3	0
7	89	3	101	0	0	0	0	0	0	0	0	0	0	0	0	0	0	0	3	0
7	90	3	95	0	0	0	0	0	0	0	0	0	0	0	0	0	0	0	3	0
7	90	3	96	0	0	0	0	0	0	0	0	0	0	0	0	0	0	0	3	0
7	90	3	97	0	0	0	0	0	0	0	0	0	0	0	0	0	0	0	3	0
7	90	3	98	0	0	0	0	0	0	0	0	0	0	0	0	0	0	0	3	0
7	90	3	99	0	0	0	0	0	0	0	0	0	0	0	0	0	0	0	3	0
7	90	3	100	0	0	0	0	0	0	0	0	0	0	0	0	0	0	0	3	0
7	90	3	101	0	0	0	0	0	0	0	0	0	0	0	0	0	0	0	3	0
7	90	3	102	0	0	0	0	0	0	0	0	0	0	0	0	0	0	0	3	0
7	91	3	96	0	0	0	0	0	0	0	0	0	0	0	0	0	0	0	3	0
7	91	3	97	0	0	0	0	0	0	0	0	0	0	0	0	0	0	0	3	0
7	91	3	98	0	0	0	0	0	0	0	0	0	0	0	0	0	0	0	3	0
7	91	3	99	0	0	0	0	0	0	0	0	0	0	0	0	0	0	0	3	0
7	91	3	100	0	0	0	0	0	0	0	0	0	0	0	0	0	0	0	3	0
7	91	3	101	0	0	0	0	0	0	0	0	0	0	0	0	0	0	0	3	0
7	91	3	102	0	0	0	0	0	0	0	0	0	0	0	0	0	0	0	3	0
7	91	3	103	0	0	0	0	0	0	0	0	0	0	0	0	0	0	0	3	0
7	92	3	97	0	0	0	0	0	0	0	0	0	0	0	0	0	0	0	3	0
7	92	3	98	0	0	0	0	0	0	0	0	0	0	0	0	0	0	0	3	0
7	92	3	99	0	0	0	0	0	0	0	0	0	0	0	0	0	0	0	3	0
7	92	3	100	0	0	0	0	0	0	0	0	0	0	0	0	0	0	0	3	0
7	92	3	101	0	0	0	0	0	0	0	0	0	0	0	0	0	0	0	3	0
7	92	3	102	0	0	0	0	0	0	0	0	0	0	0	0	0	0	0	3	0
7	92	3	103	0	0	0	0	0	0	0	0	0	0	0	0	0	0	0	3	0
7	92	3	104	0	0	0	0	0	0	0	0	0	0	0	0	0	0	0	3	0
7	93	3	98	0	0	0	0	0	0	0	0	0	0	0	0	0	0	0	3	0
7	93	3	99	0	0	0	0	0	0	0	0	0	0	0	0	0	0	0	3	0
7	93	3	100	0	0	0	0	0	0	0	0	0	0	0	0	0	0	0	3	0
7	93	3	101	0	0	0	0	0	0	0	0	0	0	0	0	0	0	0	3	0
7	93	3	102	0	0	0	0	0	0	0	0	0	0	0	0	0	0	0	3	0
7	93	3	103	0	0	0	0	0	0	0	0	0	0	0	0	0	0	0	3	0
7	93	3	104	0	0	0	0	0	0	0	0	0	0	0	0	0	0	0	3	0
7	93	3	105	0	0	0	0	0	0	0	0	0	0	0	0	0	0	0	3	0
7	94	3	99	0	0	0	0	0	0	0	0	0	0	0	0	0	0	0	3	0
7	94	3	100	0	0	0	0	0	0	0	0	0	0	0	0	0	0	0	3	0
7	94	3	101	0	0	0	0	0	0	0	0	0	0	0	0	0	0	0	3	0
7	94	3	102	0	0	0	0	0	0	0	0	0	0	0	0	0	0	0	3	0
7	94	3	103	0	0	0	0	0	0	0	0	0	0	0	0	0	0	0	3	0
7	94	3	104	0	0	0	0	0	0	0	0	0	0	0	0	0	0	0	3	0
7	94	3	105	0	0	0	0	0	0	0	0	0	0	0	0	0	0	0	3	0
7	94	3	106	0	0	0	0	0	0	0	0	0	0	0	0	0	0	0	3	0
7	95	3	100	0	0	0	0	0	0	0	0	0	0	0	0	0	0	0	3	0
7	95	3	101	0	0	0	0	0	0	0	0	0	0	0	0	0	0	0	3	0
7	95	3	102	0	0	0	0	0	0	0	0	0	0	0	0	0	0	0	3	0
7	95	3	103	0	0	0	0	0	0	0	0	0	0	0	0	0	0	0	3	0
7	95	3	104	0	0	0	0	0	0	0	0	0	0	0	0	0	0	0	3	0
7	95	3	105	0	0	0	0	0	0	0	0	0	0	0	0	0	0	0	3	0
7	95	3	106	0	0	0	0	0	0	0	0	0	0	0	0	0	0	0	3	0
7	95	3	107	0	0	0	0	0	0	0	0	0	0	0	0	0	0	0	3	0
7	96	3	101	0	0	0	0	0	0	0	0	0	0	0	0	0	0	0	3	0
7	96	3	102	0	0	0	0	0	0	0	0	0	0	0	0	0	0	0	3	0
7	96	3	103	0	0	0	0	0	0	0	0	0	0	0	0	0	0	0	3	0
7	96	3	104	0	0	0	0	0	0	0	0	0	0	0	0	0	0	0	3	0
7	96	3	105	0	0	0	0	0	0	0	0	0	0	0	0	0	0	0	3	0
7	96	3	106	0	0	0	0	0	0	0	0	0	0	0	0	0	0	0	3	0
7	96	3	107	0	0	0	0	0	0	0	0	0	0	0	0	0	0	0	3	0
7	96	3	108	0	0	0	0	0	0	0	0	0	0	0	0	0	0	0	3	0
7	97	3	102	0	0	0	0	0	0	0	0	0	0	0	0	0	0	0	3	0
7	97	3	103	0	0	0	0	0	0	0	0	0	0	0	0	0	0	0	3	0
7	97	3	104	0	0	0	0	0	0	0	0	0	0	0	0	0	0	0	3	0
7	97	3	105	0	0	0	0	0	0	0	0	0	0	0	0	0	0	0	3	0
7	97	3	106	0	0	0	0	0	0	0	0	0	0	0	0	0	0	0	3	0
7	97	3	107	0	0	0	0	0	0	0	0	0	0	0	0	0	0	0	3	0
7	97	3	108	0	0	0	0	0	0	0	0	0	0	0	0	0	0	0	3	0
7	97	3	109	0	0	0	0	0	0	0	0	0	0	0	0	0	0	0	3	0
7	98	3	103	0	0	0	0	0	0	0	0	0	0	0	0	0	0	0	3	0
7	98	3	104	0	0	0	0	0	0	0	0	0	0	0	0	0	0	0	3	0
7	98	3	105	0	0	0	0	0	0	0	0	0	0	0	0	0	0	0	3	0
7	98	3	106	0	0	0	0	0	0	0	0	0	0	0	0	0	0	0	3	0
7	98	3	107	0	0	0	0	0	0	0	0	0	0	0	0	0	0	0	3	0
7	98	3	108	0	0	0	0	0	0	0	0	0	0	0	0	0	0	0	3	0
7	98	3	109	0	0	0	0	0	0	0	0	0	0	0	0	0	0	0	3	0
7	98	3	110	0	0	0	0	0	0	0	0	0	0	0	0	0	0	0	3	0
7	99	3	104	0	0	0	0	0	0	0	0	0	0	0	0	0	0	0	3	0
7	99	3	105	0	0	0	0	0	0	0	0	0	0	0	0	0	0	0	3	0
7	99	3	106	0	0	0	0	0	0	0	0	0	0	0	0	0	0	0	3	0
7	99	3	107	0	0	0	0	0	0	0	0	0	0	0	0	0	0	0	3	0
7	99	3	108	0	0	0	0	0	0	0	0	0	0	0	0	0	0	0	3	0
7	99	3	109	0	0	0	0	0	0	0	0	0	0	0	0	0	0	0	3	0
7	99	3	110	0	0	0	0	0	0	0	0	0	0	0	0	0	0	0	3	0
7	99	3	111	0	0	0	0	0	0	0	0	0	0	0	0	0	0	0	3	0
7	100	3	105	0	0	0	0	0	0	0	0	0	0	0	0	0	0	0	3	0
7	100	3	106	0	0	0	0	0	0	0	0	0	0	0	0	0	0	0	3	0
7	100	3	107	0	0	0	0	0	0	0	0	0	0	0	0	0	0	0	3	0
7	100	3	108	0	0	0	0	0	0	0	0	0	0	0	0	0	0	0	3	0
7	100	3	109	0	0	0	0	0	0	0	0	0	0	0	0	0	0	0	3	0
7	100	3	110	0	0	0	0	0	0	0	0	0	0	0	0	0	0	0	3	0
7	100	3	111	0	0	0	0	0	0	0	0	0	0	0	0	0	0	0	3	0
7	100	3	112	0	0	0	0	0	0	0	0	0	0	0	0	0	0	0	3	0
7	101	3	106	0	0	0	0	0	0	0	0	0	0	0	0	0	0	0	3	0
7	101	3	107	0	0	0	0	0	0	0	0	0	0	0	0	0	0	0	3	0
7	101	3	108	0	0	0	0	0	0	0	0	0	0	0	0	0	0	0	3	0
7	101	3	109	0	0	0	0	0	0	0	0	0	0	0	0	0	0	0	3	0
7	101	3	110	0	0	0	0	0	0	0	0	0	0	0	0	0	0	0	3	0
7	101	3	111	0	0	0	0	0	0	0	0	0	0	0	0	0	0	0	3	0
7	101	3	112	0	0	0	0	0	0	0	0	0	0	0	0	0	0	0	3	0
7	101	3	113	0	0	0	0	0	0	0	0	0	0	0	0	0	0	0	3	0
7	102	3	107	0	0	0	0	0	0	0	0	0	0	0	0	0	0	0	3	0
7	102	3	108	0	0	0	0	0	0	0	0	0	0	0	0	0	0	0	3	0
7	102	3	109	0	0	0	0	0	0	0	0	0	0	0	0	0	0	0	3	0
7	102	3	110	0	0	0	0	0	0	0	0	0	0	0	0	0	0	0	3	0
7	102	3	111	0	0	0	0	0	0	0	0	0	0	0	0	0	0	0	3	0
7	102	3	112	0	0	0	0	0	0	0	0	0	0	0	0	0	0	0	3	0
7	102	3	113	0	0	0	0	0	0	0	0	0	0	0	0	0	0	0	3	0
7	102	3	114	0	0	0	0	0	0	0	0	0	0	0	0	0	0	0	3	0
7	103	3	108	0	0	0	0	0	0	0	0	0	0	0	0	0	0	0	3	0
7	103	3	109	0	0	0	0	0	0	0	0	0	0	0	0	0	0	0	3	0
7	103	3	110	0	0	0	0	0	0	0	0	0	0	0	0	0	0	0	3	0
7	103	3	111	0	0	0	0	0	0	0	0	0	0	0	0	0	0	0	3	0
7	103	3	112	0	0	0	0	0	0	0	0	0	0	0	0	0	0	0	3	0
7	103	3	113	0	0	0	0	0	0	0	0	0	0	0	0	0	0	0	3	0
7	103	3	114	0	0	0	0	0	0	0	0	0	0	0	0	0	0	0	3	0
7	103	3	115	0	0	0	0	0	0	0	0	0	0	0	0	0	0	0	3	0
7	104	3	109	0	0	0	0	0	0	0	0	0	0	0	0	0	0	0	3	0
7	104	3	110	0	0	0	0	0	0	0	0	0	0	0	0	0	0	0	3	0
7	104	3	111	0	0	0	0	0	0	0	0	0	0	0	0	0	0	0	3	0
7	104	3	112	0	0	0	0	0	0	0	0	0	0	0	0	0	0	0	3	0
7	104	3	113	0	0	0	0	0	0	0	0	0	0	0	0	0	0	0	3	0
7	104	3	114	0	0	0	0	0	0	0	0	0	0	0	0	0	0	0	3	0
7	104	3	115	0	0	0	0	0	0	0	0	0	0	0	0	0	0	0	3	0
7	104	3	116	0	0	0	0	0	0	0	0	0	0	0	0	0	0	0	3	0
7	105	3	110	0	0	0	0	0	0	0	0	0	0	0	0	0	0	0	3	0
7	105	3	111	0	0	0	0	0	0	0	0	0	0	0	0	0	0	0	3	0
7	105	3	112	0	0	0	0	0	0	0	0	0	0	0	0	0	0	0	3	0
7	105	3	113	0	0	0	0	0	0	0	0	0	0	0	0	0	0	0	3	0
7	105	3	114	0	0	0	0	0	0	0	0	0	0	0	0	0	0	0	3	0
7	105	3	115	0	0	0	0	0	0	0	0	0	0	0	0	0	0	0	3	0
7	105	3	116	0	0	0	0	0	0	0	0	0	0	0	0	0	0	0	3	0
7	105	3	117	0	0	0	0	0	0	0	0	0	0	0	0	0	0	0	3	0
7	106	3	111	0	0	0	0	0	0	0	0	0	0	0	0	0	0	0	3	0
7	106	3	112	0	0	0	0	0	0	0	0	0	0	0	0	0	0	0	3	0
7	106	3	113	0	0	0	0	0	0	0	0	0	0	0	0	0	0	0	3	0
7	106	3	114	0	0	0	0	0	0	0	0	0	0	0	0	0	0	0	3	0
7	106	3	115	0	0	0	0	0	0	0	0	0	0	0	0	0	0	0	3	0
7	106	3	116	0	0	0	0	0	0	0	0	0	0	0	0	0	0	0	3	0
7	106	3	117	0	0	0	0	0	0	0	0	0	0	0	0	0	0	0	3	0
7	106	3	118	0	0	0	0	0	0	0	0	0	0	0	0	0	0	0	3	0
7	107	3	112	0	0	0	0	0	0	0	0	0	0	0	0	0	0	0	3	0
7	107	3	113	0	0	0	0	0	0	0	0	0	0	0	0	0	0	0	3	0
7	107	3	114	0	0	0	0	0	0	0	0	0	0	0	0	0	0	0	3	0
7	107	3	115	0	0	0	0	0	0	0	0	0	0	0	0	0	0	0	3	0
7	107	3	116	0	0	0	0	0	0	0	0	0	0	0	0	0	0	0	3	0
7	107	3	117	0	0	0	0	0	0	0	0	0	0	0	0	0	0	0	3	0
7	107	3	118	0	0	0	0	0	0	0	0	0	0	0	0	0	0	0	3	0
7	107	3	119	0	0	0	0	0	0	0	0	0	0	0	0	0	0	0	3	0
7	108	3	113	0	0	0	0	0	0	0	0	0	0	0	0	0	0	0	3	0
7	108	3	114	0	0	0	0	0	0	0	0	0	0	0	0	0	0	0	3	0
7	108	3	115	0	0	0	0	0	0	0	0	0	0	0	0	0	0	0	3	0
7	108	3	116	0	0	0	0	0	0	0	0	0	0	0	0	0	0	0	3	0
7	108	3	117	0	0	0	0	0	0	0	0	0	0	0	0	0	0	0	3	0
7	108	3	118	0	0	0	0	0	0	0	0	0	0	0	0	0	0	0	3	0
7	108	3	119	0	0	0	0	0	0	0	0	0	0	0	0	0	0	0	3	0
7	108	3	120	0	0	0	0	0	0	0	0	0	0	0	0	0	0	0	3	0
7	109	3	114	0	0	0	0	0	0	0	0	0	0	0	0	0	0	0	3	0
7	109	3	115	0	0	0	0	0	0	0	0	0	0	0	0	0	0	0	3	0
7	109	3	116	0	0	0	0	0	0	0	0	0	0	0	0	0	0	0	3	0
7	109	3	117	0	0	0	0	0	0	0	0	0	0	0	0	0	0	0	3	0
7	109	3	118	0	0	0	0	0	0	0	0	0	0	0	0	0	0	0	3	0
7	109	3	119	0	0	0	0	0	0	0	0	0	0	0	0	0	0	0	3	0
7	109	3	120	0	0	0	0	0	0	0	0	0	0	0	0	0	0	0	3	0
7	110	3	115	0	0	0	0	0	0	0	0	0	0	0	0	0	0	0	3	0
7	110	3	116	0	0	0	0	0	0	0	0	0	0	0	0	0	0	0	3	0
7	110	3	117	0	0	0	0	0	0	0	0	0	0	0	0	0	0	0	3	0
7	110	3	118	0	0	0	0	0	0	0	0	0	0	0	0	0	0	0	3	0
7	110	3	119	0	0	0	0	0	0	0	0	0	0	0	0	0	0	0	3	0
7	110	3	120	0	0	0	0	0	0	0	0	0	0	0	0	0	0	0	3	0
7	111	3	116	0	0	0	0	0	0	0	0	0	0	0	0	0	0	0	3	0
7	111	3	117	0	0	0	0	0	0	0	0	0	0	0	0	0	0	0	3	0
7	111	3	118	0	0	0	0	0	0	0	0	0	0	0	0	0	0	0	3	0
7	111	3	119	0	0	0	0	0	0	0	0	0	0	0	0	0	0	0	3	0
7	111	3	120	0	0	0	0	0	0	0	0	0	0	0	0	0	0	0	3	0
7	112	3	117	0	0	0	0	0	0	0	0	0	0	0	0	0	0	0	3	0
7	112	3	118	0	0	0	0	0	0	0	0	0	0	0	0	0	0	0	3	0
7	112	3	119	0	0	0	0	0	0	0	0	0	0	0	0	0	0	0	3	0
7	112	3	120	0	0	0	0	0	0	0	0	0	0	0	0	0	0	0	3	0
7	113	3	118	0	0	0	0	0	0	0	0	0	0	0	0	0	0	0	3	0
7	113	3	119	0	0	0	0	0	0	0	0	0	0	0	0	0	0	0	3	0
7	113	3	120	0	0	0	0	0	0	0	0	0	0	0	0	0	0	0	3	0
7	114	3	119	0	0	0	0	0	0	0	0	0	0	0	0	0	0	0	3	0
7	114	3	120	0	0	0	0	0	0	0	0	0	0	0	0	0	0	0	3	0
7	115	3	120	0	0	0	0	0	0	0	0	0	0	0	0	0	0	0	3	0